s 1
v -1 -2 1768515943 926365492 84215041 -757935410 -7 1852730984 1010580533 168430082 11 -1515870820 -13 1094795574 -15 -589505328 -1431655779 18 -19 -20 -505290287 -1347440738 23 -24 421075205 -421075246 -1263225697 28 -29 505290246 -336860205 -1179010656 -2021161107 -34 589505287 -36 -37 -1936946066 1515870779 673720328 -168430123 -1010580574 43 1600085820 757935369 -84215082 47 48 1684300861 -50 
t 3ms